(set-info :smt-lib-version 2.6)
(set-logic QF_LIA)
(set-info :source |
Alberto Griggio

|)
(set-info :category "random")
(set-info :status sat)
(declare-fun x0 () Int)
(declare-fun x1 () Int)
(declare-fun x2 () Int)
(declare-fun x3 () Int)
(declare-fun x4 () Int)
(declare-fun x5 () Int)
(declare-fun x6 () Int)
(declare-fun x7 () Int)
(declare-fun x8 () Int)
(declare-fun x9 () Int)
(declare-fun x10 () Int)
(declare-fun x11 () Int)
(declare-fun x12 () Int)
(declare-fun x13 () Int)
(declare-fun x14 () Int)
(declare-fun x15 () Int)
(declare-fun x16 () Int)
(declare-fun x17 () Int)
(declare-fun x18 () Int)
(declare-fun x19 () Int)
(declare-fun x20 () Int)
(declare-fun x21 () Int)
(declare-fun x22 () Int)
(declare-fun x23 () Int)
(declare-fun x24 () Int)
(declare-fun x25 () Int)
(declare-fun x26 () Int)
(declare-fun x27 () Int)
(declare-fun x28 () Int)
(declare-fun x29 () Int)
(assert (let ((?v_35 (* 1 x2)) (?v_14 (* 1 x23)) (?v_10 (* 0 x7)) (?v_2 (* 1 x24)) (?v_64 (* 1 x12)) (?v_27 (* 1 x0)) (?v_24 (* 1 x11)) (?v_32 (* 1 x5)) (?v_9 (* 0 x21)) (?v_86 (* 1 x17)) (?v_7 (* 1 x27)) (?v_1 (* 0 x26)) (?v_62 (* 0 x8)) (?v_13 (* 0 x27)) (?v_6 (* 0 x0)) (?v_12 (* 0 x13)) (?v_20 (* 1 x6)) (?v_21 (* 1 x22)) (?v_19 (* 0 x19)) (?v_78 (* 1 x7)) (?v_60 (* 1 x13)) (?v_58 (* 1 x29)) (?v_15 (* 0 x18)) (?v_33 (* 1 x18)) (?v_57 (* 1 x15)) (?v_39 (* 1 x10)) (?v_41 (* 1 x21)) (?v_30 (* 1 x3)) (?v_63 (* 1 x1)) (?v_16 (* 0 x4)) (?v_74 (* 1 x28)) (?v_79 (* 1 x26)) (?v_36 (* 1 x19)) (?v_47 (* 0 x10)) (?v_54 (* 1 x25)) (?v_37 (* 0 x17)) (?v_48 (* 0 x9)) (?v_28 (* 0 x20)) (?v_55 (* 0 x15)) (?v_67 (* 0 x6)) (?v_34 (* 0 x16)) (?v_8 (* 0 x12)) (?v_43 (* 1 x8)) (?v_29 (* 0 x22)) (?v_68 (* 1 x16)) (?v_44 (* 0 x23)) (?v_45 (* 0 x11)) (?v_26 (* 0 x3)) (?v_72 (* 0 x24)) (?v_71 (* 0 x14)) (?v_70 (* 0 x25)) (?v_50 (* 0 x5)) (?v_73 (* 0 x29)) (?v_83 (* 1 x14)) (?v_85 (* 1 x4)) (?v_89 (* 1 x20)) (?v_25 (* 0 x28)) (?v_22 (* 0 x1)) (?v_5 (* 0 x2)) (?v_88 (* 1 x9)) (?v_52 (* (- 1) x4)) (?v_76 (* (- 1) x19)) (?v_3 (* (- 1) x29)) (?v_40 (* (- 1) x26)) (?v_0 (* (- 1) x8)) (?v_38 (* (- 1) x12)) (?v_42 (* (- 1) x15)) (?v_82 (* (- 1) x10)) (?v_4 (* (- 1) x25)) (?v_46 (* (- 1) x22)) (?v_11 (* (- 1) x13)) (?v_17 (* (- 1) x9)) (?v_49 (* (- 1) x14)) (?v_18 (* (- 1) x18)) (?v_23 (* (- 1) x1)) (?v_51 (* (- 1) x7)) (?v_31 (* (- 1) x0)) (?v_56 (* (- 1) x6)) (?v_84 (* (- 1) x2)) (?v_81 (* (- 1) x17)) (?v_77 (* (- 1) x27)) (?v_69 (* (- 1) x5)) (?v_65 (* (- 1) x24)) (?v_66 (* (- 1) x21)) (?v_53 (* (- 1) x28)) (?v_61 (* (- 1) x23)) (?v_59 (* (- 1) x16)) (?v_75 (* (- 1) x20)) (?v_80 (* (- 1) x11)) (?v_87 (* (- 1) x3))) (and (<= (+ ?v_35 ?v_52 ?v_76 ?v_14 ?v_50 ?v_3 ?v_8 ?v_40 ?v_10 ?v_2 ?v_0 ?v_0 ?v_64 ?v_38 ?v_29 ?v_1 ?v_27 ?v_24 ?v_32 ?v_9 ?v_22 ?v_25 ?v_86 ?v_7 ?v_42 ?v_0 ?v_82 ?v_4 ?v_1 ?v_2) (- 1)) (<= (+ ?v_62 ?v_3 ?v_13 ?v_4 ?v_6 ?v_5 ?v_12 ?v_46 ?v_20 ?v_5 ?v_1 ?v_16 ?v_21 ?v_1 ?v_28 ?v_5 ?v_6 ?v_7 ?v_8 ?v_9 ?v_45 ?v_5 ?v_19 ?v_11 ?v_78 ?v_2 ?v_60 ?v_10 ?v_17 ?v_11) (- 1)) (<= (+ ?v_12 ?v_58 ?v_15 ?v_13 ?v_33 ?v_14 ?v_15 ?v_34 ?v_4 ?v_57 ?v_49 ?v_15 ?v_18 ?v_16 ?v_17 ?v_12 ?v_39 ?v_18 ?v_19 ?v_20 ?v_26 ?v_41 ?v_30 ?v_2 ?v_21 ?v_9 ?v_13 ?v_22 ?v_9 ?v_63) 1) (<= (+ ?v_16 ?v_23 ?v_74 ?v_51 ?v_23 ?v_19 ?v_19 ?v_31 ?v_19 ?v_6 ?v_79 ?v_23 ?v_36 ?v_17 ?v_47 ?v_16 ?v_54 ?v_9 ?v_11 ?v_9 ?v_37 ?v_6 ?v_24 ?v_25 ?v_10 ?v_25 ?v_12 ?v_23 ?v_56 ?v_9) 1) (<= (+ ?v_48 ?v_14 ?v_26 ?v_6 ?v_21 ?v_27 ?v_13 ?v_28 ?v_29 ?v_22 ?v_3 ?v_22 ?v_16 ?v_30 ?v_31 ?v_6 ?v_13 ?v_32 ?v_10 ?v_70 ?v_0 ?v_55 ?v_9 ?v_44 ?v_67 ?v_12 ?v_13 ?v_33 ?v_34 ?v_8) (- 1)) (<= (+ ?v_43 ?v_35 ?v_19 ?v_27 ?v_36 ?v_17 ?v_16 ?v_37 ?v_84 ?v_38 ?v_81 ?v_39 ?v_40 ?v_3 ?v_41 ?v_2 ?v_16 ?v_15 ?v_42 ?v_24 ?v_21 ?v_77 ?v_42 ?v_24 ?v_38 ?v_5 ?v_29 ?v_34 ?v_68 ?v_26) (- 1)) (<= (+ ?v_24 ?v_13 ?v_37 ?v_69 ?v_35 ?v_17 ?v_0 ?v_43 ?v_4 ?v_28 ?v_44 ?v_65 ?v_45 ?v_16 ?v_40 ?v_45 ?v_46 ?v_47 ?v_8 ?v_48 ?v_44 ?v_49 ?v_50 ?v_66 ?v_31 ?v_15 ?v_51 ?v_20 ?v_21 ?v_53) 0) (<= (+ ?v_36 ?v_26 ?v_21 ?v_52 ?v_53 ?v_19 ?v_54 ?v_61 ?v_14 ?v_55 ?v_46 ?v_72 ?v_27 ?v_43 ?v_53 ?v_36 ?v_54 ?v_47 ?v_59 ?v_29 ?v_56 ?v_7 ?v_43 ?v_6 ?v_8 ?v_57 ?v_1 ?v_50 ?v_45 ?v_7) (- 1)) (<= (+ ?v_58 ?v_41 ?v_41 ?v_37 ?v_71 ?v_59 ?v_15 ?v_60 ?v_34 ?v_75 ?v_17 ?v_6 ?v_61 ?v_80 ?v_73 ?v_62 ?v_37 ?v_55 ?v_23 ?v_51 ?v_14 ?v_55 ?v_42 ?v_44 ?v_60 ?v_63 ?v_64 ?v_57 ?v_45 ?v_51) (- 1)) (<= (+ ?v_15 ?v_65 ?v_14 ?v_47 ?v_9 ?v_40 ?v_66 ?v_26 ?v_1 ?v_38 ?v_6 ?v_67 ?v_6 ?v_3 ?v_53 ?v_47 ?v_48 ?v_68 ?v_15 ?v_34 ?v_55 ?v_33 ?v_2 ?v_69 ?v_70 ?v_13 ?v_71 ?v_61 ?v_57 ?v_22) 0) (<= (+ ?v_20 ?v_28 ?v_70 ?v_59 ?v_49 ?v_67 ?v_50 ?v_57 ?v_72 ?v_50 ?v_19 ?v_8 ?v_25 ?v_67 ?v_50 ?v_13 ?v_28 ?v_29 ?v_23 ?v_14 ?v_73 ?v_14 ?v_49 ?v_56 ?v_37 ?v_74 ?v_48 ?v_50 ?v_59 ?v_9) 1) (<= (+ ?v_54 ?v_45 ?v_5 ?v_9 ?v_49 ?v_39 ?v_29 ?v_25 ?v_9 ?v_28 ?v_63 ?v_25 ?v_46 ?v_64 ?v_26 ?v_14 ?v_0 ?v_26 ?v_37 ?v_64 ?v_33 ?v_75 ?v_76 ?v_77 ?v_43 ?v_8 ?v_45 ?v_15 ?v_52 ?v_19) 0) (<= (+ ?v_67 ?v_56 ?v_34 ?v_52 ?v_78 ?v_50 ?v_83 ?v_62 ?v_72 ?v_41 ?v_23 ?v_29 ?v_62 ?v_44 ?v_15 ?v_39 ?v_32 ?v_46 ?v_40 ?v_52 ?v_16 ?v_79 ?v_85 ?v_80 ?v_47 ?v_60 ?v_65 ?v_29 ?v_11 ?v_51) (- 1)) (<= (+ ?v_39 ?v_35 ?v_39 ?v_23 ?v_89 ?v_81 ?v_68 ?v_68 ?v_70 ?v_32 ?v_37 ?v_6 ?v_25 ?v_12 ?v_45 ?v_34 ?v_52 ?v_79 ?v_64 ?v_2 ?v_6 ?v_79 ?v_57 ?v_55 ?v_21 ?v_32 ?v_43 ?v_30 ?v_37 ?v_1) 0) (<= (+ ?v_21 ?v_32 ?v_34 ?v_53 ?v_3 ?v_6 ?v_17 ?v_19 ?v_82 ?v_17 ?v_28 ?v_19 ?v_80 ?v_26 ?v_67 ?v_58 ?v_55 ?v_11 ?v_50 ?v_10 ?v_66 ?v_26 ?v_27 ?v_70 ?v_16 ?v_5 ?v_18 ?v_19 ?v_83 ?v_71) 0) (<= (+ ?v_63 ?v_72 ?v_29 ?v_45 ?v_45 ?v_55 ?v_65 ?v_12 ?v_25 ?v_15 ?v_11 ?v_71 ?v_16 ?v_31 ?v_37 ?v_58 ?v_9 ?v_10 ?v_83 ?v_39 ?v_84 ?v_62 ?v_85 ?v_87 ?v_6 ?v_36 ?v_28 ?v_69 ?v_52 ?v_43) 1) (<= (+ ?v_86 ?v_17 ?v_62 ?v_87 ?v_80 ?v_26 ?v_37 ?v_20 ?v_8 ?v_22 ?v_48 ?v_38 ?v_55 ?v_48 ?v_11 ?v_72 ?v_76 ?v_9 ?v_25 ?v_9 ?v_23 ?v_53 ?v_33 ?v_34 ?v_5 ?v_31 ?v_0 ?v_2 ?v_29 ?v_30) 0) (<= (+ ?v_88 ?v_31 ?v_39 ?v_5 ?v_13 ?v_47 ?v_6 ?v_63 ?v_80 ?v_6 ?v_62 ?v_17 ?v_36 ?v_88 ?v_29 ?v_57 ?v_83 ?v_79 ?v_80 ?v_28 ?v_72 ?v_71 ?v_78 ?v_89 ?v_48 ?v_52 ?v_12 ?v_72 ?v_53 ?v_28) 1) (<= (+ ?v_39 ?v_63 ?v_8 ?v_67 ?v_38 ?v_63 ?v_24 ?v_51 ?v_64 ?v_20 ?v_48 ?v_82 ?v_28 ?v_26 ?v_82 ?v_75 ?v_72 ?v_4 ?v_16 ?v_11 ?v_51 ?v_29 ?v_20 ?v_17 ?v_22 ?v_68 ?v_23 ?v_31 ?v_12 ?v_9) (- 1)) (<= (+ ?v_45 ?v_7 ?v_61 ?v_55 ?v_77 ?v_47 ?v_40 ?v_21 ?v_16 ?v_89 ?v_78 ?v_19 ?v_81 ?v_37 ?v_0 ?v_65 ?v_3 ?v_39 ?v_23 ?v_43 ?v_62 ?v_21 ?v_89 ?v_45 ?v_86 ?v_4 ?v_20 ?v_1 ?v_70 ?v_43) 0) (<= (+ ?v_44 ?v_26 ?v_21 ?v_13 ?v_46 ?v_26 ?v_5 ?v_13 ?v_6 ?v_29 ?v_85 ?v_70 ?v_8 ?v_16 ?v_14 ?v_45 ?v_80 ?v_80 ?v_76 ?v_75 ?v_59 ?v_25 ?v_17 ?v_29 ?v_34 ?v_72 ?v_56 ?v_33 ?v_13 ?v_61) 0) (<= (+ ?v_25 ?v_72 ?v_4 ?v_56 ?v_84 ?v_18 ?v_4 ?v_60 ?v_1 ?v_16 ?v_32 ?v_57 ?v_70 ?v_61 ?v_79 ?v_29 ?v_10 ?v_46 ?v_13 ?v_8 ?v_55 ?v_64 ?v_1 ?v_7 ?v_51 ?v_53 ?v_56 ?v_16 ?v_1 ?v_25) 0) (<= (+ ?v_34 ?v_48 ?v_74 ?v_47 ?v_47 ?v_34 ?v_42 ?v_53 ?v_69 ?v_82 ?v_13 ?v_54 ?v_71 ?v_72 ?v_73 ?v_9 ?v_73 ?v_42 ?v_27 ?v_26 ?v_2 ?v_44 ?v_89 ?v_24 ?v_52 ?v_45 ?v_35 ?v_70 ?v_5 ?v_19) (- 1)) (<= (+ ?v_43 ?v_25 ?v_6 ?v_68 ?v_32 ?v_36 ?v_89 ?v_28 ?v_26 ?v_44 ?v_18 ?v_16 ?v_70 ?v_62 ?v_8 ?v_13 ?v_49 ?v_64 ?v_76 ?v_84 ?v_50 ?v_44 ?v_62 ?v_62 ?v_26 ?v_29 ?v_80 ?v_12 ?v_67 ?v_59) 1) (<= (+ ?v_39 ?v_71 ?v_29 ?v_12 ?v_12 ?v_12 ?v_14 ?v_7 ?v_20 ?v_56 ?v_67 ?v_47 ?v_57 ?v_53 ?v_44 ?v_25 ?v_76 ?v_62 ?v_55 ?v_70 ?v_6 ?v_73 ?v_81 ?v_34 ?v_25 ?v_86 ?v_55 ?v_56 ?v_16 ?v_23) 0) (<= (+ ?v_48 ?v_53 ?v_20 ?v_54 ?v_27 ?v_1 ?v_3 ?v_11 ?v_31 ?v_33 ?v_28 ?v_88 ?v_31 ?v_60 ?v_76 ?v_84 ?v_47 ?v_46 ?v_55 ?v_83 ?v_80 ?v_77 ?v_9 ?v_73 ?v_60 ?v_25 ?v_16 ?v_22 ?v_29 ?v_2) 1) (<= (+ ?v_73 ?v_48 ?v_3 ?v_48 ?v_26 ?v_10 ?v_8 ?v_35 ?v_28 ?v_8 ?v_84 ?v_48 ?v_55 ?v_11 ?v_12 ?v_48 ?v_38 ?v_71 ?v_9 ?v_48 ?v_28 ?v_60 ?v_48 ?v_31 ?v_28 ?v_86 ?v_78 ?v_14 ?v_7 ?v_25) 0) (<= (+ ?v_10 ?v_48 ?v_2 ?v_65 ?v_19 ?v_84 ?v_55 ?v_6 ?v_31 ?v_33 ?v_32 ?v_67 ?v_71 ?v_12 ?v_62 ?v_10 ?v_72 ?v_12 ?v_6 ?v_45 ?v_25 ?v_56 ?v_11 ?v_45 ?v_21 ?v_57 ?v_78 ?v_69 ?v_55 ?v_1) 1) (<= (+ ?v_47 ?v_22 ?v_0 ?v_37 ?v_19 ?v_55 ?v_66 ?v_66 ?v_5 ?v_1 ?v_73 ?v_70 ?v_31 ?v_39 ?v_80 ?v_8 ?v_56 ?v_28 ?v_30 ?v_15 ?v_5 ?v_63 ?v_5 ?v_16 ?v_12 ?v_50 ?v_13 ?v_62 ?v_22 ?v_34) 0) (<= (+ ?v_37 ?v_74 ?v_34 ?v_6 ?v_77 ?v_59 ?v_34 ?v_75 ?v_29 ?v_33 ?v_9 ?v_32 ?v_41 ?v_19 ?v_15 ?v_83 ?v_3 ?v_67 ?v_70 ?v_56 ?v_54 ?v_35 ?v_73 ?v_69 ?v_5 ?v_1 ?v_53 ?v_16 ?v_25 ?v_77) (- 1)) (<= (+ ?v_9 ?v_68 ?v_71 ?v_81 ?v_32 ?v_68 ?v_34 ?v_34 ?v_48 ?v_7 ?v_87 ?v_43 ?v_76 ?v_65 ?v_19 ?v_85 ?v_25 ?v_37 ?v_62 ?v_86 ?v_6 ?v_89 ?v_34 ?v_43 ?v_89 ?v_70 ?v_67 ?v_7 ?v_16 ?v_62) (- 1)) (<= (+ ?v_33 ?v_23 ?v_5 ?v_62 ?v_44 ?v_18 ?v_86 ?v_25 ?v_29 ?v_16 ?v_29 ?v_72 ?v_41 ?v_55 ?v_47 ?v_17 ?v_54 ?v_44 ?v_70 ?v_13 ?v_73 ?v_75 ?v_23 ?v_18 ?v_34 ?v_28 ?v_36 ?v_1 ?v_46 ?v_42) 0) (<= (+ ?v_68 ?v_74 ?v_25 ?v_59 ?v_61 ?v_41 ?v_13 ?v_63 ?v_87 ?v_9 ?v_19 ?v_28 ?v_62 ?v_28 ?v_10 ?v_31 ?v_44 ?v_17 ?v_10 ?v_69 ?v_15 ?v_60 ?v_58 ?v_14 ?v_50 ?v_86 ?v_4 ?v_47 ?v_72 ?v_63) 0) (<= (+ ?v_19 ?v_67 ?v_63 ?v_16 ?v_62 ?v_40 ?v_37 ?v_28 ?v_6 ?v_44 ?v_45 ?v_28 ?v_73 ?v_25 ?v_37 ?v_86 ?v_3 ?v_18 ?v_77 ?v_70 ?v_58 ?v_55 ?v_8 ?v_50 ?v_48 ?v_61 ?v_67 ?v_1 ?v_19 ?v_43) 0) (<= (+ ?v_32 ?v_22 ?v_22 ?v_47 ?v_32 ?v_25 ?v_71 ?v_83 ?v_45 ?v_27 ?v_89 ?v_70 ?v_67 ?v_49 ?v_77 ?v_39 ?v_27 ?v_9 ?v_8 ?v_64 ?v_69 ?v_28 ?v_82 ?v_47 ?v_12 ?v_41 ?v_61 ?v_35 ?v_60 ?v_21) (- 1)) (<= (+ ?v_26 ?v_76 ?v_42 ?v_29 ?v_31 ?v_55 ?v_61 ?v_38 ?v_30 ?v_40 ?v_72 ?v_72 ?v_2 ?v_62 ?v_70 ?v_16 ?v_15 ?v_51 ?v_77 ?v_63 ?v_65 ?v_87 ?v_5 ?v_44 ?v_53 ?v_9 ?v_26 ?v_73 ?v_49 ?v_18) 0) (<= (+ ?v_44 ?v_37 ?v_72 ?v_50 ?v_28 ?v_33 ?v_8 ?v_5 ?v_13 ?v_63 ?v_44 ?v_40 ?v_53 ?v_51 ?v_45 ?v_12 ?v_55 ?v_80 ?v_40 ?v_18 ?v_72 ?v_33 ?v_47 ?v_22 ?v_26 ?v_57 ?v_70 ?v_4 ?v_60 ?v_81) (- 1)) (<= (+ ?v_30 ?v_24 ?v_67 ?v_61 ?v_73 ?v_7 ?v_71 ?v_49 ?v_85 ?v_28 ?v_45 ?v_13 ?v_7 ?v_19 ?v_49 ?v_48 ?v_77 ?v_60 ?v_71 ?v_1 ?v_67 ?v_84 ?v_55 ?v_39 ?v_19 ?v_50 ?v_27 ?v_57 ?v_72 ?v_6) 0) (<= (+ ?v_21 ?v_51 ?v_9 ?v_15 ?v_77 ?v_27 ?v_76 ?v_9 ?v_64 ?v_39 ?v_38 ?v_14 ?v_44 ?v_17 ?v_35 ?v_77 ?v_85 ?v_62 ?v_12 ?v_70 ?v_8 ?v_53 ?v_10 ?v_65 ?v_5 ?v_83 ?v_73 ?v_5 ?v_45 ?v_5) (- 1)) (<= (+ ?v_6 ?v_25 ?v_64 ?v_69 ?v_9 ?v_67 ?v_18 ?v_18 ?v_47 ?v_32 ?v_25 ?v_71 ?v_83 ?v_61 ?v_73 ?v_69 ?v_65 ?v_26 ?v_6 ?v_39 ?v_37 ?v_47 ?v_47 ?v_74 ?v_8 ?v_71 ?v_86 ?v_2 ?v_10 ?v_10) (- 1)))))
(check-sat)
(exit)
